S = 4;
start = [|11,0,0,12,0,0,15,0,0,0,0,0,0,0,0,0|
0,0,0,8,14,0,13,0,0,0,9,5,0,0,0,0|
0,0,0,0,0,0,5,0,0,4,0,2,0,15,0,1|
0,4,9,0,0,0,0,0,0,0,0,0,0,0,5,0|
0,0,0,0,0,0,8,0,0,14,0,0,6,0,0,0|
0,0,0,0,15,0,0,12,4,13,0,9,0,0,0,0|
0,0,0,7,6,0,0,16,0,0,0,15,4,0,0,0|
14,5,0,0,0,0,0,4,0,6,11,0,0,12,0,15|
0,0,0,0,0,12,7,0,0,0,0,11,8,0,0,0|
0,3,0,0,16,0,0,6,0,12,0,0,13,1,0,0|
9,12,0,0,0,0,1,5,0,0,6,0,14,3,4,0|
0,0,13,0,0,3,0,0,5,8,0,0,0,0,12,0|
0,0,7,0,0,2,0,0,0,0,0,0,0,0,0,0|
0,0,0,14,0,0,16,15,0,0,0,0,0,0,6,0|
4,15,0,0,0,7,0,13,1,9,5,8,16,0,0,0|
0,8,12,0,0,0,0,9,0,10,0,6,0,4,0,0|];